c b=3,c=1097
p cnf 16 25
3 -6 0
3 -9 0
3 -12 0
3 -16 0
-3 6 0
-3 9 0
-3 12 0
-3 16 0
2 -5 0
2 -8 0
2 -11 0
2 -15 0
-2 5 0
-2 8 0
-2 11 0
-2 15 0
1 -4 0
1 -7 0
1 -10 0
1 -14 0
-1 4 0
-1 7 0
-1 10 0
-1 14 0
-13 0
